854
1263
1063
2787
230
3575
552
2063
2718
412
620
1470
2241
2818
3484
1701
2935
864
2318
627
1132
2997
3075
3787
1076
1555
3476
1224
1762
338
1792
3260
1296
1981
1650
2508
2300
1194
1528
2135
690
3546
2858
620
813
3352
1816
138
2922
3104
2108
2377
1278
291
3659
1465
993
2684
2056
390
3716
1624
649
3779
285
3715
129
330
343
2815
3335
2392
2914
2490
3775
2899
2927
2980
235
507
703
3254
388
861
164
1366
3113
1867
2058
3646
668
571
3375
1746
671
1970
1006
1832
3571
2810
